; sanic :: corpus-study/repo_src/sanic/sanic/server/websockets/impl.py :: LOCK 'WebsocketImplProtocol.recv_lock' :: structured encoding (verdict: unsat)
; Generated by snf-pipeline (encoder.py) -- run with any
; SMT-LIB2-compliant solver, e.g. `z3 sanic__corpus-study_repo_src_sanic_sanic_server_websockets_impl.py__WebsocketImplProtocol.recv_lock__structured.smt2`
; benchmark generated from python API
(set-info :status unknown)
(declare-fun lorder_0 () Int)
(declare-fun lorder_1 () Int)
(declare-fun lorder_2 () Int)
(assert
 (>= lorder_0 1))
(assert
 (<= lorder_0 3))
(assert
 (>= lorder_1 1))
(assert
 (<= lorder_1 3))
(assert
 (>= lorder_2 1))
(assert
 (<= lorder_2 3))
(assert
 (and (distinct lorder_0 lorder_1 lorder_2) true))
(assert
 (let (($x42 (= lorder_1 lorder_2)))
(let (($x40 (= lorder_0 lorder_2)))
(let (($x39 (= lorder_0 lorder_1)))
(or $x39 $x40 $x42)))))
(check-sat)
